Normalized Data/p04_2_normalized_splitx10_0.vrp
NAME:p04_2_NORMALIZED_splitx10_
BEST_KNOWN: 0
COMMENT: 0
DIMENSION: 610
CAPACITY: 1000
EDGE_WEIGHT_FORMAT: FUNCTION
EDGE_WEIGHT_TYPE: EXACT_2D
NODE_COORD_SECTION
1 0.00000 0.00000
2 -19 10
3 -19 10
4 19 49
5 19 49
6 19 49
7 18 37
8 18 37
9 18 37
10 18 37
11 18 37
12 18 37
13 18 37
14 47 -5
15 47 -5
16 47 -5
17 47 -5
18 47 -5
19 37 -27
20 37 -27
21 37 -27
22 0 -23
23 0 -23
24 0 -23
25 0 -23
26 0 -23
27 38 -40
28 38 -40
29 38 -40
30 36 -43
31 36 -43
32 31 -6
33 31 -6
34 31 -6
35 27 42
36 27 42
37 27 42
38 27 42
39 27 42
40 27 42
41 46 -21
42 46 -21
43 46 -21
44 46 -21
45 46 -21
46 -27 -32
47 -27 -32
48 -27 -32
49 -27 -32
50 -20 31
51 -20 31
52 -20 31
53 -20 31
54 8 -35
55 8 -35
56 8 -35
57 8 -35
58 8 -35
59 8 -35
60 22 -1
61 22 -1
62 22 -1
63 22 -1
64 -35 -19
65 -35 -19
66 -35 -19
67 -35 -19
68 44 -21
69 44 -21
70 44 -21
71 44 -21
72 44 -21
73 -14 -33
74 -30 34
75 -30 34
76 -30 34
77 -7 30
78 -7 30
79 -13 47
80 -13 47
81 -13 47
82 -13 47
83 -13 47
84 -13 47
85 -46 27
86 -46 27
87 1 38
88 1 38
89 1 38
90 1 38
91 1 38
92 35 -38
93 35 -38
94 35 -38
95 35 -38
96 28 -5
97 28 -5
98 28 -5
99 28 -5
100 28 -5
101 28 -5
102 28 -5
103 38 10
104 38 10
105 38 10
106 38 10
107 38 10
108 38 10
109 38 10
110 10 -31
111 10 -31
112 10 -31
113 10 -31
114 10 -31
115 -37 31
116 -37 31
117 -37 31
118 41 -7
119 41 -7
120 41 -7
121 41 -7
122 41 -7
123 41 21
124 2 -6
125 2 -6
126 2 -6
127 2 -6
128 30 -12
129 30 -12
130 30 -12
131 -24 43
132 -24 43
133 -24 43
134 -46 -36
135 -46 -36
136 -46 -36
137 -46 -36
138 -46 -36
139 -46 -36
140 -16 -28
141 -16 -28
142 -16 -28
143 -16 -28
144 -16 -28
145 34 -5
146 34 -5
147 34 -5
148 -48 -18
149 -48 -18
150 -48 -18
151 -48 -18
152 -48 -18
153 -48 -18
154 -48 -18
155 -13 38
156 -13 38
157 -13 38
158 -13 38
159 -13 38
160 -13 38
161 -15 -15
162 -15 -15
163 -15 -15
164 -15 -15
165 27 -22
166 27 -22
167 27 -22
168 -39 -31
169 -39 -31
170 -39 -31
171 -39 -31
172 -39 -31
173 -39 -31
174 4 19
175 -7 45
176 -7 45
177 -7 45
178 -7 45
179 0 4
180 0 4
181 0 4
182 -28 15
183 -28 15
184 -28 15
185 -28 15
186 -28 15
187 25 -44
188 25 -44
189 -6 20
190 -6 20
191 -6 20
192 -6 20
193 -6 20
194 -6 20
195 4 -31
196 4 -31
197 4 -31
198 -6 10
199 -6 10
200 -6 10
201 -6 10
202 -6 10
203 -38 10
204 -38 10
205 -38 10
206 44 -2
207 44 -2
208 44 -2
209 44 -2
210 44 -2
211 44 -2
212 40 17
213 40 17
214 -35 32
215 -35 32
216 31 5
217 31 5
218 31 5
219 31 5
220 -21 26
221 -21 26
222 -21 26
223 -21 26
224 -21 26
225 -21 26
226 -38 5
227 -38 5
228 -38 5
229 -38 5
230 -38 5
231 -37 31
232 -37 31
233 -37 31
234 -37 31
235 -24 -23
236 -24 -23
237 -24 -23
238 39 -49
239 -34 -3
240 -34 -3
241 -34 -3
242 -34 -3
243 -6 -42
244 -6 -42
245 -6 -42
246 -6 -42
247 -6 -42
248 -6 -42
249 -15 15
250 -15 15
251 -15 15
252 -38 -21
253 -38 -21
254 -38 -21
255 -38 -21
256 -38 -21
257 -38 -21
258 -38 -21
259 -15 -17
260 -15 -17
261 -15 -17
262 -15 -17
263 -15 -17
264 -3 -46
265 -3 -46
266 -40 35
267 -40 35
268 -40 35
269 -40 35
270 -40 35
271 -40 35
272 -40 35
273 -35 23
274 -35 23
275 -35 23
276 26 2
277 26 2
278 26 2
279 -47 -49
280 -47 -49
281 -32 18
282 -32 18
283 -32 18
284 -32 18
285 -36 28
286 -36 28
287 -36 28
288 -36 28
289 33 -46
290 33 -46
291 33 -46
292 22 12
293 22 12
294 22 12
295 22 12
296 22 12
297 22 12
298 1 -5
299 1 -5
300 1 -5
301 -36 -3
302 -36 -3
303 -36 -3
304 -36 -3
305 -36 -3
306 -36 -3
307 -18 -15
308 -18 -15
309 -18 -15
310 -12 8
311 -12 8
312 46 37
313 46 37
314 46 37
315 15 -2
316 15 -2
317 15 -2
318 15 -2
319 15 -2
320 15 -2
321 15 -2
322 -21 -45
323 -21 -45
324 -36 31
325 -36 31
326 -36 31
327 -36 31
328 -36 31
329 -40 -26
330 -40 -26
331 -40 -26
332 19 -12
333 -24 -35
334 -24 -35
335 -24 -35
336 -24 -35
337 -32 18
338 -32 18
339 -32 18
340 -32 18
341 -32 18
342 -32 18
343 2 36
344 2 36
345 2 36
346 2 36
347 -6 -12
348 -6 -12
349 -6 -12
350 -6 -12
351 -6 -12
352 -6 -12
353 -28 -49
354 -28 -49
355 -28 -49
356 -28 -49
357 -28 -49
358 40 38
359 40 38
360 40 38
361 32 4
362 32 4
363 32 4
364 32 4
365 32 4
366 -49 29
367 -49 29
368 23 15
369 23 15
370 23 15
371 23 15
372 23 15
373 19 -39
374 19 -39
375 19 -39
376 19 -39
377 19 -39
378 32 37
379 32 37
380 32 37
381 32 37
382 -1 13
383 -1 13
384 -1 13
385 -1 13
386 -1 13
387 -49 -48
388 -49 -48
389 -49 -48
390 -49 -48
391 -49 -48
392 -21 -37
393 -21 -37
394 -10 47
395 -10 47
396 49 35
397 49 35
398 49 35
399 49 35
400 49 35
401 49 35
402 24 -38
403 24 -38
404 24 -38
405 24 -38
406 24 -38
407 24 -38
408 -42 35
409 -42 35
410 -42 35
411 -42 35
412 -42 35
413 -42 35
414 22 -20
415 22 -20
416 22 -20
417 22 -20
418 -27 0
419 -27 0
420 -27 0
421 -27 0
422 -44 -15
423 -44 -15
424 -44 -15
425 -38 -23
426 -38 -23
427 -38 -23
428 -38 -23
429 -50 41
430 -50 41
431 -50 41
432 -50 41
433 -50 41
434 7 -36
435 7 -36
436 7 -36
437 -38 -37
438 -38 -37
439 14 39
440 14 39
441 14 39
442 14 39
443 2 31
444 2 31
445 2 31
446 -36 15
447 -36 15
448 -36 15
449 -36 15
450 -36 15
451 24 -35
452 24 -35
453 24 -35
454 24 -35
455 24 -35
456 24 -35
457 46 34
458 46 34
459 46 34
460 46 34
461 -38 8
462 -38 8
463 -38 8
464 -38 8
465 13 -36
466 13 -36
467 13 -36
468 13 -36
469 13 -36
470 13 -36
471 48 12
472 48 12
473 48 12
474 -20 18
475 -20 18
476 -20 18
477 -20 18
478 -20 18
479 -20 18
480 -20 18
481 7 45
482 7 45
483 7 45
484 7 45
485 20 -50
486 20 -50
487 20 -50
488 20 -50
489 28 13
490 28 13
491 28 13
492 28 13
493 28 13
494 5 -43
495 5 -43
496 5 -43
497 5 -43
498 5 -43
499 5 -43
500 5 -43
501 -41 -5
502 -41 -5
503 -41 -5
504 -41 -5
505 -41 -5
506 -8 -35
507 -8 -35
508 -8 -35
509 40 36
510 40 36
511 40 36
512 40 36
513 40 36
514 40 36
515 39 22
516 39 22
517 39 22
518 38 15
519 38 15
520 38 15
521 7 12
522 7 12
523 7 12
524 7 12
525 7 12
526 7 12
527 36 -14
528 36 -14
529 36 -14
530 36 -14
531 36 -14
532 -48 42
533 -48 42
534 -48 42
535 -48 42
536 -48 42
537 -44 -49
538 -44 -49
539 -44 -49
540 -44 -49
541 24 -16
542 24 -16
543 24 -16
544 -23 37
545 35 -8
546 35 -8
547 35 -8
548 35 -8
549 35 -8
550 -6 4
551 -6 4
552 -6 4
553 -6 4
554 -6 4
555 36 48
556 36 48
557 -31 15
558 -49 49
559 -49 49
560 -49 49
561 -49 49
562 -49 49
563 -49 49
564 -49 49
565 -12 28
566 -12 28
567 -12 28
568 42 -19
569 42 -19
570 -48 -26
571 -48 -26
572 -50 1
573 -50 1
574 -31 -48
575 -31 -48
576 -31 -48
577 -31 -48
578 -31 -48
579 -6 -15
580 -6 -15
581 -6 -15
582 -6 -15
583 13 37
584 13 37
585 13 37
586 13 37
587 13 37
588 -36 -41
589 -36 -41
590 5 30
591 5 30
592 5 30
593 5 30
594 5 30
595 -28 19
596 -28 19
597 -28 19
598 -28 19
599 -28 19
600 -46 -33
601 -46 -33
602 -46 -33
603 -46 -33
604 -46 -33
605 10 -49
606 10 -49
607 33 34
608 33 34
609 33 34
610 33 34
DEMAND_SECTION
1 0
2 200
3 10
4 200
5 200
6 50
7 200
8 200
9 50
10 10
11 10
12 10
13 10
14 200
15 50
16 10
17 10
18 10
19 200
20 200
21 10
22 200
23 200
24 50
25 10
26 10
27 200
28 50
29 10
30 200
31 100
32 100
33 50
34 10
35 200
36 50
37 10
38 10
39 10
40 10
41 200
42 200
43 10
44 10
45 10
46 100
47 50
48 10
49 10
50 200
51 200
52 50
53 10
54 200
55 50
56 10
57 10
58 10
59 10
60 200
61 50
62 10
63 10
64 100
65 10
66 10
67 10
68 200
69 10
70 10
71 10
72 10
73 200
74 100
75 50
76 10
77 200
78 200
79 200
80 200
81 50
82 10
83 10
84 10
85 200
86 50
87 200
88 200
89 10
90 10
91 10
92 200
93 100
94 50
95 10
96 200
97 100
98 50
99 10
100 10
101 10
102 10
103 200
104 200
105 50
106 10
107 10
108 10
109 10
110 200
111 100
112 50
113 10
114 10
115 100
116 50
117 10
118 200
119 10
120 10
121 10
122 10
123 200
124 100
125 10
126 10
127 10
128 100
129 50
130 10
131 200
132 100
133 10
134 200
135 50
136 10
137 10
138 10
139 10
140 200
141 50
142 10
143 10
144 10
145 200
146 200
147 10
148 200
149 100
150 50
151 10
152 10
153 10
154 10
155 200
156 100
157 50
158 10
159 10
160 10
161 100
162 50
163 10
164 10
165 200
166 200
167 10
168 100
169 50
170 10
171 10
172 10
173 10
174 200
175 200
176 200
177 10
178 10
179 200
180 200
181 10
182 200
183 50
184 10
185 10
186 10
187 200
188 50
189 200
190 100
191 50
192 10
193 10
194 10
195 200
196 100
197 10
198 100
199 50
200 10
201 10
202 10
203 200
204 200
205 10
206 200
207 200
208 50
209 10
210 10
211 10
212 200
213 50
214 200
215 50
216 100
217 50
218 10
219 10
220 100
221 50
222 10
223 10
224 10
225 10
226 200
227 10
228 10
229 10
230 10
231 200
232 200
233 10
234 10
235 200
236 50
237 10
238 200
239 200
240 50
241 10
242 10
243 100
244 50
245 10
246 10
247 10
248 10
249 200
250 50
251 10
252 200
253 200
254 50
255 10
256 10
257 10
258 10
259 100
260 10
261 10
262 10
263 10
264 200
265 100
266 200
267 200
268 50
269 10
270 10
271 10
272 10
273 200
274 100
275 10
276 200
277 200
278 50
279 200
280 10
281 100
282 50
283 10
284 10
285 100
286 50
287 10
288 10
289 200
290 200
291 10
292 200
293 200
294 10
295 10
296 10
297 10
298 200
299 100
300 10
301 200
302 100
303 50
304 10
305 10
306 10
307 200
308 10
309 10
310 200
311 200
312 200
313 100
314 10
315 200
316 200
317 50
318 10
319 10
320 10
321 10
322 200
323 50
324 200
325 200
326 50
327 10
328 10
329 200
330 50
331 10
332 200
333 200
334 100
335 50
336 10
337 100
338 50
339 10
340 10
341 10
342 10
343 200
344 200
345 10
346 10
347 200
348 200
349 50
350 10
351 10
352 10
353 200
354 50
355 10
356 10
357 10
358 200
359 100
360 50
361 200
362 10
363 10
364 10
365 10
366 200
367 50
368 200
369 100
370 10
371 10
372 10
373 200
374 200
375 50
376 10
377 10
378 200
379 200
380 50
381 10
382 200
383 200
384 10
385 10
386 10
387 100
388 50
389 10
390 10
391 10
392 100
393 50
394 200
395 10
396 200
397 100
398 50
399 10
400 10
401 10
402 100
403 50
404 10
405 10
406 10
407 10
408 200
409 200
410 10
411 10
412 10
413 10
414 200
415 50
416 10
417 10
418 100
419 10
420 10
421 10
422 200
423 200
424 50
425 200
426 200
427 50
428 10
429 100
430 10
431 10
432 10
433 10
434 100
435 10
436 10
437 100
438 50
439 200
440 100
441 10
442 10
443 200
444 100
445 50
446 200
447 50
448 10
449 10
450 10
451 200
452 100
453 50
454 10
455 10
456 10
457 200
458 100
459 10
460 10
461 200
462 200
463 10
464 10
465 100
466 50
467 10
468 10
469 10
470 10
471 200
472 100
473 50
474 200
475 100
476 50
477 10
478 10
479 10
480 10
481 200
482 200
483 10
484 10
485 200
486 10
487 10
488 10
489 200
490 200
491 10
492 10
493 10
494 200
495 100
496 50
497 10
498 10
499 10
500 10
501 200
502 50
503 10
504 10
505 10
506 200
507 200
508 100
509 200
510 200
511 10
512 10
513 10
514 10
515 200
516 50
517 10
518 100
519 50
520 10
521 200
522 200
523 50
524 10
525 10
526 10
527 200
528 100
529 10
530 10
531 10
532 200
533 200
534 10
535 10
536 10
537 200
538 100
539 50
540 10
541 200
542 200
543 50
544 200
545 200
546 10
547 10
548 10
549 10
550 200
551 200
552 50
553 10
554 10
555 100
556 50
557 200
558 200
559 200
560 50
561 10
562 10
563 10
564 10
565 200
566 10
567 10
568 200
569 10
570 200
571 10
572 200
573 200
574 200
575 200
576 50
577 10
578 10
579 200
580 200
581 10
582 10
583 200
584 200
585 10
586 10
587 10
588 200
589 50
590 200
591 50
592 10
593 10
594 10
595 200
596 200
597 50
598 10
599 10
600 100
601 10
602 10
603 10
604 10
605 200
606 200
607 100
608 10
609 10
610 10
DEPOT_SECTION
1
-1
EOF