Normalized Data/p04_2_normalized_splitx10_0.sol
609 -11 9 8 12 6 7 10 586 585 584 583 582 591 590 593 592 -20 19 18 26 27 28 94 92 91 416 415 -21 22 196 195 194 56 54 58 57 55 53 -23 24 25 604 605 484 485 487 486 187 186 469 466 467 468 -31 32 33 146 145 144 363 361 362 364 360 217 216 218 215 -37 36 38 35 39 34 554 555 380 379 378 377 -49 50 52 51 220 224 223 221 222 219 473 474 475 -61 59 60 62 276 277 275 -63 65 254 255 252 257 256 251 253 424 425 -66 64 569 570 603 602 599 601 600 134 135 133 138 136 137 436 437 171 168 167 169 170 172 -68 67 69 70 71 40 43 44 42 41 568 567 528 527 530 -76 77 442 589 173 -85 84 366 365 430 563 559 557 561 560 562 558 -86 90 88 87 89 344 345 342 343 444 443 -93 30 29 237 289 290 288 -96 98 100 95 99 101 97 548 547 545 544 546 526 529 127 129 128 -105 104 102 103 107 106 108 472 471 470 517 518 519 -119 117 121 118 120 14 17 16 15 13 207 209 208 206 210 205 -123 413 414 540 542 541 331 -124 125 404 405 406 401 402 403 453 452 451 454 455 450 165 166 164 -126 111 109 112 110 113 465 464 376 373 374 375 372 -141 139 140 143 142 72 506 505 507 -155 154 159 156 157 175 177 176 174 483 481 -163 160 161 162 262 260 258 261 259 235 234 236 307 306 308 -178 179 -180 -182 181 185 184 183 283 341 340 282 280 337 281 339 598 594 595 596 597 -200 199 201 198 197 190 188 192 191 193 189 381 382 385 383 384 -204 202 203 449 445 446 448 447 338 336 556 -214 213 268 270 269 271 266 265 267 327 325 323 -239 240 304 300 303 302 502 501 500 571 572 -243 245 247 244 242 246 264 263 499 498 495 494 493 497 496 434 435 433 -249 248 250 2 1 310 309 -274 272 273 287 286 75 73 74 132 130 131 543 -285 284 233 116 232 114 115 231 230 326 324 477 476 479 478 -291 296 292 293 294 295 488 367 369 368 371 370 -297 298 299 -305 301 503 504 150 151 149 148 153 152 147 422 421 423 -318 314 320 319 315 317 316 521 520 523 522 524 525 -322 321 352 354 353 355 356 575 576 573 574 577 -349 348 346 347 350 351 578 580 581 579 -386 390 387 388 389 279 278 537 539 538 536 587 588 -392 391 332 335 334 333 47 48 46 45 330 329 328 426 427 -394 393 78 82 79 81 83 80 158 564 565 566 -396 400 395 399 397 398 312 311 313 509 513 511 510 512 -410 412 407 411 408 409 429 428 432 431 534 532 533 535 531 -420 418 419 417 241 238 229 227 226 225 228 463 460 462 461 -441 439 440 438 5 4 3 480 482 -457 459 458 456 508 358 359 357 607 609 606 608 -492 489 491 490 211 212 122 514 515 516 -550 549 552 551 553 0 





OBJ=
4454.782
BEST_KNOWN=
0.000